NAME : instances/20-120-tsp/instance-25.tsp
COMMENT : No Comment
TYPE : TSP
DIMENSION: 25
EDGE_WEIGHT_TYPE : EUC_2D
NODE_COORD_SECTION
1 9465 7728 
2 1428 8098 
3 2517 1789 
4 9130 303 
5 7487 9784 
6 93 7748 
7 1444 9362 
8 7764 5364 
9 3747 8853 
10 7835 1095 
11 7849 7211 
12 9796 5852 
13 5214 6938 
14 422 3097 
15 7776 6559 
16 4269 3392 
17 9975 6218 
18 7105 8965 
19 9611 442 
20 4505 2593 
21 6549 4805 
22 2639 3588 
23 2811 8287 
24 2501 3613 
25 1273 9239 
EOF
